c SAT Generator for power-law distributed variable frequencies
c -g u -v 20 -c 91 -k 3 -p 2.750000 -b 3.200000 -f /home/schmidt/Devel/ni-kop-sat/data/ensemble/ruf20-91/ruf20-91-47 -u 1 -U 1 -s 3834277561
p cnf 20 91
11 -12 -19 0
-5 11 20 0
2 -7 11 0
-10 -17 18 0
-5 -15 -17 0
4 13 20 0
3 14 17 0
13 16 17 0
-2 15 16 0
-3 -7 19 0
-6 -7 -9 0
-8 9 -11 0
-4 12 14 0
-6 12 16 0
-7 11 15 0
3 18 -19 0
1 -5 16 0
5 -13 -15 0
5 10 -14 0
-3 7 -14 0
2 12 -14 0
2 7 13 0
-5 13 -19 0
-7 -14 -20 0
-2 3 -19 0
-15 -17 -20 0
-6 -13 18 0
4 7 -8 0
5 6 17 0
-4 -5 9 0
3 11 16 0
-3 -7 10 0
-4 5 19 0
2 -7 -19 0
1 -7 8 0
-4 -8 15 0
-1 -5 8 0
6 17 -18 0
8 -9 19 0
3 -18 -20 0
4 9 -11 0
-8 -10 17 0
1 -5 -17 0
5 13 -15 0
-8 16 18 0
4 9 -14 0
-4 -16 19 0
9 -11 20 0
4 -12 13 0
3 9 14 0
3 13 15 0
2 9 15 0
-6 -11 -14 0
14 -18 -19 0
11 -18 -20 0
7 -8 -17 0
-3 8 -18 0
12 16 17 0
8 -16 -18 0
5 -16 -20 0
-8 14 16 0
2 4 20 0
-6 9 17 0
6 9 -11 0
-14 -19 20 0
-6 -9 15 0
1 -10 -14 0
-11 -14 15 0
12 -14 19 0
-5 -7 11 0
4 12 20 0
2 7 12 0
1 -15 -17 0
-3 -7 -20 0
3 7 -9 0
-1 2 -7 0
-3 -5 -8 0
4 5 7 0
-1 11 -12 0
-7 13 -15 0
11 18 20 0
8 -14 17 0
10 13 14 0
-7 -9 -17 0
-4 14 19 0
9 12 18 0
-3 -17 20 0
13 17 19 0
9 -15 20 0
-6 -14 -19 0
7 -9 16 0
